
Gurobi 10.0.3 (linux64, gurobi_cl) logging started Thu Nov  2 11:51:49 2023

Set parameter Username
Set parameter TimeLimit to value 3600
Set parameter LogFile to value "RCPSP_944.log"
Set parameter Threads to value 32
Academic license - for non-commercial use only - expires 2024-10-30
Using license file /home/jrivera6/gurobi-licenses/v1003/compute-0-34/gurobi.lic

Gurobi Optimizer version 10.0.3 build v10.0.3rc0 (linux64)
Copyright (c) 2023, Gurobi Optimization, LLC

Read MPS format model from file RCPSP_944.mps
Reading time = 0.07 seconds
RCPSP_944: 19662 rows, 7750 columns, 71936 nonzeros

CPU model: Intel(R) Xeon(R) Gold 6130 CPU @ 2.10GHz, instruction set [SSE2|AVX|AVX2|AVX512]
Thread count: 32 physical cores, 32 logical processors, using up to 32 threads

Optimize a model with 19662 rows, 7750 columns and 71936 nonzeros
Model fingerprint: 0x09cdd2f0
Variable types: 62 continuous, 7688 integer (7688 binary)
Coefficient statistics:
  Matrix range     [1e+00, 3e+02]
  Objective range  [1e+00, 1e+00]
  Bounds range     [1e+00, 1e+00]
  RHS range        [1e+00, 3e+02]
Presolve removed 3972 rows and 881 columns (presolve time = 5s) ...
Presolve removed 9717 rows and 3761 columns
Presolve time: 5.60s
Presolved: 9945 rows, 3989 columns, 37437 nonzeros
Variable types: 61 continuous, 3928 integer (3928 binary)

Root simplex log...

Iteration    Objective       Primal Inf.    Dual Inf.      Time
       0    7.6000000e+01   1.849600e+04   0.000000e+00      6s
    1229    7.6000000e+01   0.000000e+00   0.000000e+00      6s

Root relaxation: objective 7.600000e+01, 1229 iterations, 0.02 seconds (0.01 work units)

    Nodes    |    Current Node    |     Objective Bounds      |     Work
 Expl Unexpl |  Obj  Depth IntInf | Incumbent    BestBd   Gap | It/Node Time

H    0     0                      76.0000000   76.00000  0.00%     -    5s
     0     0   76.00000    0  546   76.00000   76.00000  0.00%     -    5s

Explored 1 nodes (1229 simplex iterations) in 5.74 seconds (3.57 work units)
Thread count was 32 (of 32 available processors)

Solution count 1: 76 

Optimal solution found (tolerance 1.00e-04)
Best objective 7.600000000000e+01, best bound 7.600000000000e+01, gap 0.0000%

Wrote result file 'RCPSP_944.sol'

